c clasp version 2.1.1
c Reading from pb_300_08.cnf
c Solving...
s UNSATISFIABLE

c Models        : 0     
c Time          : 78.802s (Solving: 77.25s 1st Model: 0.00s Unsat: 77.25s)
c CPU Time      : 78.660s
c Choices       : 1434238
c Conflicts     : 221414
c Restarts      : 370    (Average: 598.41 Last: 2318)

c Variables     : 380969 (Eliminated: 119782 Frozen:    0)
c Constraints   : 469498 (Binary: 63.9% Ternary: 35.1% Other:  1.0%)
c Lemmas        : 221413 (Binary:  0.5% Ternary:  1.8% Other: 97.6%)
c   Conflict    : 221413 (Average Length: 62.4) 
c   Loop        : 0      (Average Length: 0.0) 
c   Other       : 0      (Average Length: 0.0)
c   Deleted     : 170117
